36344 40335 
36424 40288 
36279 40376 
38263 39749 
39325 39163 
39122 39251 
39935 38706 
39218 39247 
38796 39484 
39828 38790 
38408 39675 
38861 39443 
38060 39837 
38596 39642 
37651 40024 
37035 40190 
37450 40114 
38323 39715 
38461 39668 
37817 40011 
37301 40184 
36836 40262 
